(set-info :status unsat)
(declare-codatatypes ((T 0)) ((
  (f0)
  (f1 (proj0f1 T)))))
(assert (exists ((y12818 T) (y12809 T) (y12811 T) (y12810 T) (y12813 T) (y12812 T) (y12806 T) (y12814 T) (y12817 T) (y12816 T) (y12827 T) (y12831 T) (y12815 T) (y12824 T) (y12825 T) (y12826 T) (y12830 T) (y12821 T) (y12822 T) (y12823 T) (y12828 T)) (forall ((x12838 T) (x12841 T) (x12840 T) (x12833 T) (x12834 T) (x12835 T) (x12836 T) (x12837 T)) 
  (or 
    (and (= y12806 (f1 x12838)) (= x12834 (f1 x12833)) (= x12833 (f1 x12834)) (distinct y12806 x12834)) 
    (and (= y12809 (f1 y12811)) (= y12811 (f1 y12812)) (= y12812 (f1 y12813)) (= y12813 (f1 y12814)) (= y12814 (f1 y12809)) (= y12810 (f1 y12815)) (= y12815 (f1 y12816)) (= y12816 (f1 y12817)) (= y12817 (f1 y12818)) (= y12818 (f1 y12810)) (distinct y12809 y12810)) 
    (and (= x12836 (f1 (f1 (f1 (f1 (f1 x12836)))))) (= x12841 (f1 (f1 (f1 (f1 y12821))))) (= y12821 (f1 x12841)) (distinct x12836 x12841)) 
    (and (= y12822 (f1 y12824)) (= y12824 x12837) (= y12825 (f1 y12826)) (= y12826 x12835) (= y12823 (f1 (f1 (f1 y12827)))) (= y12827 (f1 y12823)) (distinct y12822 y12823)) 
    (and (= y12828 (f1 y12830)) (= y12830 (f1 y12828)) (= x12840 (f1 y12831)) (= y12831 (f1 x12840)) (distinct y12828 x12840))))))
(check-sat)
